NAME : 100-10-3-i.32521.tour
COMMENT : Length = 32521
COMMENT : Found by LKH-3 [Keld Helsgaun] Tue Dec 17 14:07:00 2024
TYPE : TOUR
DIMENSION : 120
TOUR_SECTION
1
57
52
66
46
53
49
62
59
50
55
44
65
67
56
48
70
54
64
41
47
43
51
58
68
42
45
111
2
112
3
105
100
77
87
108
72
74
75
83
80
79
76
93
81
110
91
102
84
90
96
88
98
85
73
82
109
95
106
92
99
89
94
97
103
71
78
104
107
86
101
113
4
69
61
60
114
5
115
6
116
7
28
11
38
36
27
17
29
22
18
24
16
20
30
12
25
37
23
31
19
14
33
21
34
13
39
32
26
35
40
15
117
8
118
9
63
119
10
120
-1
EOF
